SAT
98 38 37 -13 1 59 -49 6 36 -23 15 95 99 -96 52 47 43 61 45 -28 -42 -75 68 -56 21 14 90 -70 -40 48 29 -26 83 -97 -93 -100 -78 -3 94 -53 -60 73 -46 4 67 -55 -20 65 88 7 -5 -17 72 44 -30 87 -2 -8 33 64 -11 -35 -85 9 84 -34 82 -18 22 -12 -41 66 -63 -91 -39 32 89 -76 -27 -77 80 79 -74 24 10 -58 -71 86 19 -54 62 57 81 25 -31 69 50 92 -16 51 0
